nNurses = 159;
nHours = 35;
minHours = 5;
maxHours = 16;
maxConsec = 11;
maxPresence = 20;
demand = [45, 47, 46, 50, 46, 43, 39, 38, 40, 43, 45, 41, 36, 39, 35, 38, 38, 37, 35, 31, 28, 30, 30, 35, 30, 31, 34, 39, 36, 32, 29, 31, 30, 26, 29];
